(set-info :smt-lib-version 2.6)
(set-logic LRA)
(set-info :source |
   Monniaux, David; Quantifier Elimination by Lazy Model Enumeration, CAV 2010
|)
(set-info :category "random")
; ./Mjollnir_examples/B6/formula_123.m
(set-info :status unsat)
(assert
 (forall ((|v17:0| Real) )(forall ((|v16:1| Real) )(forall ((|v15:2| Real) )(forall ((|v14:3| Real) )(forall ((|v13:4| Real) )(forall ((|v12:5| Real) )(exists ((|v11:6| Real) )(exists ((|v10:7| Real) )(exists ((|v9:8| Real) )(exists ((|v8:9| Real) )(exists ((|v7:10| Real) )(exists ((|v6:11| Real) )(forall ((|v5:12| Real) )(forall ((|v4:13| Real) )(forall ((|v3:14| Real) )(forall ((|v2:15| Real) )(forall ((|v1:16| Real) )(forall ((|v0:17| Real) )(let ((?x19 (- 19)))
(let ((?x79 (- 20)))
(let ((?x609 (* ?x79 |v16:1|)))
(let ((?x45 12))
(let ((?x195 (* ?x45 |v11:6|)))
(let ((?x190 11))
(let ((?x413 (* ?x190 |v5:12|)))
(let ((?x343 (* ?x190 |v7:10|)))
(let ((?x988 (+ (+ (+ (* (- 8) |v9:8|) (* 20 |v14:3|)) ?x343) ?x413)))
(let ((?x116 (- 4)))
(let ((?x49 14))
(let ((?x822 (* ?x49 |v17:0|)))
(let ((?x238 0))
(let ((?x506 (* ?x238 |v13:4|)))
(let ((?x978 (+ (+ (+ (* (- 6) |v13:4|) (* ?x49 |v4:13|)) ?x506) (* (- 12) |v13:4|))))
(let ((?x983 (+ (+ (+ ?x978 (* 17 |v8:9|)) (* 8 |v6:11|)) ?x822)))
(let (($x994 (or (<= ?x983 ?x116) (<= (+ (+ (+ ?x988 (* (- 3) |v14:3|)) ?x195) ?x609) ?x19))))
(let ((?x243 15))
(let ((?x348 (* ?x243 |v14:3|)))
(let ((?x63 (- 7)))
(let ((?x133 (* ?x63 |v12:5|)))
(let ((?x112 9))
(let ((?x683 (* ?x112 |v3:14|)))
(let ((?x967 (+ (+ (+ (* ?x190 |v15:2|) (* (- 15) |v6:11|)) (* ?x116 |v8:9|)) (* (- 8) |v0:17|))))
(let ((?x197 (- 1)))
(let ((?x87 (- 6)))
(let ((?x859 (* ?x87 |v17:0|)))
(let ((?x274 (- 2)))
(let ((?x689 (* ?x274 |v11:6|)))
(let ((?x955 (+ (+ (* ?x238 |v3:14|) (* 17 |v14:3|)) (* (- 13) |v1:16|))))
(let ((?x961 (+ (+ (+ (+ ?x955 (* 16 |v4:13|)) ?x689) ?x859) (* (- 17) |v15:2|))))
(let (($x995 (or (and (<= ?x961 ?x197) (<= (+ (+ (+ ?x967 ?x683) ?x133) ?x348) ?x19)) $x994)))
(let ((?x14 20))
(let ((?x257 (* ?x14 |v17:0|)))
(let ((?x28 (- 15)))
(let ((?x877 (* ?x28 |v3:14|)))
(let ((?x817 (* ?x14 |v5:12|)))
(let ((?x943 (+ (+ (* 18 |v6:11|) (* 8 |v12:5|)) (* 18 |v1:16|))))
(let ((?x217 (- 12)))
(let ((?x143 (- 10)))
(let ((?x754 (* ?x143 |v12:5|)))
(let ((?x370 (* ?x19 |v1:16|)))
(let ((?x934 (+ (+ (+ (* 7 |v3:14|) (* ?x238 |v17:0|)) (* ?x116 |v9:8|)) ?x370)))
(let (($x949 (and (<= (+ (+ (+ ?x934 (* ?x197 |v17:0|)) ?x754) ?x689) ?x217) (<= (+ (+ (+ (+ ?x943 ?x817) ?x877) |v17:0|) ?x257) ?x14))))
(let ((?x91 13))
(let ((?x232 6))
(let ((?x861 (* ?x232 |v9:8|)))
(let ((?x922 (+ (+ (+ (* ?x143 |v11:6|) (* 8 |v1:16|)) (* ?x112 |v9:8|)) (* 3 |v7:10|))))
(let ((?x927 (+ (+ (+ ?x922 (* 3 |v16:1|)) ?x861) (* (- 17) |v7:10|))))
(let ((?x94 17))
(let ((?x910 (+ (+ (+ (* 18 |v12:5|) (* ?x79 |v5:12|)) (* ?x190 |v9:8|)) (* ?x28 |v2:15|))))
(let ((?x916 (+ (+ (+ ?x910 (* 19 |v3:14|)) (* (- 14) |v2:15|)) (* (- 17) |v16:1|))))
(let ((?x70 3))
(let ((?x103 (- 9)))
(let ((?x104 (* ?x103 |v3:14|)))
(let ((?x526 (* ?x70 |v5:12|)))
(let ((?x607 (* ?x49 |v13:4|)))
(let ((?x894 (* ?x112 |v9:8|)))
(let ((?x896 (+ (+ (+ (* (- 8) |v6:11|) (* 18 |v17:0|)) ?x894) ?x607)))
(let ((?x181 4))
(let ((?x292 (* ?x181 |v13:4|)))
(let ((?x58 19))
(let ((?x141 (* ?x58 |v10:7|)))
(let ((?x885 (+ (+ (+ (* ?x238 |v4:13|) (* ?x19 |v11:6|)) (* (- 5) |v0:17|)) ?x141)))
(let (($x891 (<= (+ (+ (+ ?x885 (* ?x197 |v2:15|)) (* (- 17) |v17:0|)) ?x292) ?x238)))
(let ((?x54 (- 14)))
(let ((?x259 (* ?x116 |v15:2|)))
(let ((?x494 (* ?x49 |v2:15|)))
(let ((?x875 (+ (+ (+ (* ?x217 |v8:9|) (* (- 8) |v9:8|)) ?x413) (* ?x190 |v17:0|))))
(let ((?x67 (- 17)))
(let ((?x772 (* ?x243 |v10:7|)))
(let ((?x865 (+ (+ (+ (+ (* ?x63 |v9:8|) ?x859) ?x861) (* ?x19 |v13:4|)) (* ?x143 |v4:13|))))
(let (($x881 (or (<= (+ (+ ?x865 (* ?x103 |v1:16|)) ?x772) ?x67) (<= (+ (+ (+ ?x875 ?x494) ?x877) ?x259) ?x54))))
(let (($x903 (and $x881 (and $x891 (<= (+ (+ (+ ?x896 ?x526) (* ?x63 |v7:10|)) ?x104) ?x70)))))
(let ((?x120 (- 8)))
(let ((?x138 7))
(let ((?x672 (* ?x138 |v4:13|)))
(let ((?x851 (+ (+ (+ (+ (* ?x58 |v4:13|) ?x413) (* ?x94 |v3:14|)) (* ?x274 |v14:3|)) ?x672)))
(let ((?x839 (+ (+ (+ (* ?x19 |v5:12|) (* ?x181 |v6:11|)) (* ?x45 |v9:8|)) (* ?x58 |v5:12|))))
(let (($x846 (<= (+ (+ (+ ?x839 (* ?x217 |v5:12|)) (* ?x54 |v6:11|)) (* ?x116 |v2:15|)) ?x217)))
(let ((?x222 10))
(let ((?x825 (+ (+ (+ (* ?x120 |v7:10|) (* 2 |v7:10|)) ?x822) (* ?x49 |v9:8|))))
(let ((?x831 (+ (+ (+ ?x825 (* (- 5) |v14:3|)) (* ?x54 |v8:9|)) (* ?x238 |v9:8|))))
(let ((?x810 (+ (+ (* ?x112 |v4:13|) (* 8 |v9:8|)) (* (- 5) |v1:16|))))
(let ((?x818 (+ (+ (+ (+ ?x810 (* ?x63 |v1:16|)) (* ?x243 |v6:11|)) (* ?x120 |v11:6|)) ?x817)))
(let (($x857 (or (and (<= ?x818 ?x243) (<= ?x831 ?x222)) (and $x846 (<= (+ (+ ?x851 (* 8 |v11:6|)) |v7:10|) ?x120)))))
(let (($x997 (and (and $x857 $x903) (or (or (or (<= ?x916 ?x94) (<= ?x927 ?x91)) $x949) $x995))))
(let ((?x107 (- 16)))
(let ((?x279 (* ?x63 |v4:13|)))
(let ((?x798 (+ (+ (+ (* ?x190 |v12:5|) (* ?x217 |v0:17|)) (* ?x217 |v3:14|)) (* ?x103 |v13:4|))))
(let ((?x472 (* ?x54 |v0:17|)))
(let ((?x782 (+ (+ (* 5 |v13:4|) (* ?x222 |v3:14|)) (* (- 3) |v15:2|))))
(let ((?x788 (+ (+ (+ ?x782 (* ?x58 |v8:9|)) (* 2 |v9:8|)) (* ?x107 |v11:6|))))
(let ((?x24 16))
(let ((?x302 (* ?x24 |v1:16|)))
(let ((?x771 (+ (+ (+ (* (- 5) |v16:1|) (* ?x143 |v0:17|)) ?x302) (* ?x112 |v7:10|))))
(let (($x778 (<= (+ (+ (+ ?x771 ?x772) (* ?x190 |v4:13|)) (* 5 |v1:16|)) ?x19)))
(let ((?x762 (* ?x222 |v3:14|)))
(let ((?x147 18))
(let ((?x172 (* ?x147 |v12:5|)))
(let ((?x760 (+ (+ (+ (+ (* (- 5) |v3:14|) ?x754) (* ?x45 |v1:16|)) ?x172) (* (- 11) |v9:8|))))
(let ((?x751 (* ?x45 |v9:8|)))
(let ((?x263 (* ?x138 |v7:10|)))
(let ((?x749 (+ (+ (+ (+ (* ?x232 |v0:17|) (* ?x243 |v2:15|)) (* ?x181 |v17:0|)) ?x494) (* ?x49 |v6:11|))))
(let (($x765 (and (<= (+ (+ ?x749 ?x263) ?x751) ?x19) (<= (+ (+ ?x760 |v14:3|) ?x762) ?x19))))
(let (($x805 (and (or $x765 (and $x778 (<= (+ ?x788 ?x472) ?x91))) (<= (+ (+ (+ ?x798 ?x279) (* ?x120 |v4:13|)) (* ?x243 |v15:2|)) ?x107))))
(let ((?x128 (- 5)))
(let ((?x399 (* ?x128 |v2:15|)))
(let ((?x734 (+ (+ (+ (* ?x67 |v9:8|) (* (- 11) |v11:6|)) (* ?x87 |v6:11|)) (* (- 18) |v13:4|))))
(let ((?x460 (- 11)))
(let ((?x474 (* ?x460 |v16:1|)))
(let ((?x402 (* ?x107 |v3:14|)))
(let ((?x725 (+ (+ (+ (+ (* ?x217 |v3:14|) (* ?x190 |v15:2|)) (* ?x49 |v7:10|)) ?x292) ?x402)))
(let (($x741 (or (<= (+ (+ ?x725 |v15:2|) ?x474) ?x14) (<= (+ (+ (+ ?x734 (* ?x19 |v9:8|)) (* ?x147 |v4:13|)) ?x399) ?x94))))
(let ((?x714 (+ (+ (+ (+ (* ?x87 |v15:2|) ?x689) (* ?x232 |v4:13|)) (* ?x24 |v10:7|)) |v16:1|)))
(let ((?x38 5))
(let ((?x219 (* ?x38 |v9:8|)))
(let ((?x319 (* ?x107 |v17:0|)))
(let ((?x703 (+ (+ (+ (* ?x243 |v4:13|) (* 2 |v16:1|)) (* ?x24 |v3:14|)) (* ?x147 |v9:8|))))
(let (($x720 (or (<= (+ (+ (+ ?x703 ?x319) (* ?x238 |v10:7|)) ?x219) ?x45) (<= (+ (+ ?x714 (* ?x222 |v14:3|)) (* ?x91 |v6:11|)) ?x143))))
(let ((?x691 (* ?x128 |v3:14|)))
(let ((?x688 (+ (+ (+ (* 8 |v8:9|) ?x683) (* ?x128 |v6:11|)) (* ?x232 |v1:16|))))
(let ((?x678 (* ?x19 |v13:4|)))
(let ((?x674 (* ?x147 |v17:0|)))
(let ((?x677 (+ (+ (+ (+ (* ?x222 |v13:4|) (* (- 18) |v6:11|)) ?x672) ?x674) (* ?x238 |v12:5|))))
(let (($x696 (or (<= (+ (+ ?x677 ?x678) (* (- 3) |v11:6|)) ?x190) (<= (+ (+ (+ ?x688 ?x689) ?x691) (* (- 18) |v4:13|)) ?x103))))
(let ((?x412 (* ?x70 |v4:13|)))
(let ((?x665 (* ?x138 |v3:14|)))
(let ((?x271 (* ?x243 |v9:8|)))
(let ((?x664 (+ (+ (+ (+ (* ?x19 |v4:13|) (* ?x232 |v12:5|)) (* ?x87 |v16:1|)) ?x271) (* ?x58 |v15:2|))))
(let (($x806 (or (and (and (<= (+ (+ ?x664 ?x665) ?x412) ?x238) $x696) (and $x720 $x741)) $x805)))
(let ((?x650 (+ (+ (+ (* ?x143 |v14:3|) (* ?x232 |v11:6|)) (* ?x128 |v11:6|)) (* ?x103 |v15:2|))))
(let ((?x205 (* ?x54 |v13:4|)))
(let ((?x442 (* ?x24 |v0:17|)))
(let ((?x635 (+ (+ (+ (* ?x49 |v7:10|) (* (- 13) |v15:2|)) (* ?x116 |v6:11|)) (* ?x28 |v4:13|))))
(let ((?x528 (* ?x79 |v7:10|)))
(let ((?x160 2))
(let ((?x317 (* ?x160 |v15:2|)))
(let ((?x624 (+ (+ (+ (* ?x79 |v13:4|) (* (- 13) |v15:2|)) (* ?x70 |v6:11|)) ?x317)))
(let (($x641 (or (<= (+ (+ (+ ?x624 (* ?x63 |v15:2|)) (* ?x19 |v7:10|)) ?x528) ?x79) (<= (+ (+ (+ ?x635 (* 8 |v5:12|)) ?x442) ?x205) ?x181))))
(let ((?x530 (* ?x138 |v6:11|)))
(let ((?x615 (+ (+ (+ (+ (+ (* ?x112 |v10:7|) ?x607) ?x609) |v5:12|) (* ?x28 |v9:8|)) (* ?x143 |v9:8|))))
(let ((?x336 (* ?x103 |v12:5|)))
(let ((?x599 (+ (+ (+ (* ?x103 |v14:3|) (* ?x232 |v17:0|)) (* ?x49 |v0:17|)) (* ?x197 |v3:14|))))
(let (($x618 (or (<= (+ (+ (+ ?x599 ?x336) (* ?x197 |v12:5|)) (* ?x197 |v0:17|)) ?x143) (<= (+ ?x615 ?x530) ?x120))))
(let ((?x590 (* ?x49 |v7:10|)))
(let ((?x587 (+ (+ (+ (+ (* ?x112 |v17:0|) (* ?x79 |v15:2|)) (* ?x116 |v16:1|)) ?x319) (* ?x103 |v16:1|))))
(let ((?x15 (* ?x14 |v13:4|)))
(let ((?x572 (+ (+ (+ (* ?x70 |v11:6|) (* ?x222 |v6:11|)) (* ?x217 |v2:15|)) (* ?x160 |v1:16|))))
(let (($x578 (<= (+ (+ (+ ?x572 (* ?x24 |v13:4|)) ?x15) (* (- 18) |v14:3|)) ?x45)))
(let ((?x80 (* ?x79 |v4:13|)))
(let ((?x125 (* ?x103 |v5:12|)))
(let ((?x324 (* ?x94 |v1:16|)))
(let ((?x562 (+ (+ (+ (* ?x54 |v3:14|) (* 8 |v17:0|)) (* ?x87 |v9:8|)) (* ?x45 |v2:15|))))
(let ((?x10 (- 18)))
(let ((?x355 (* ?x197 |v14:3|)))
(let ((?x551 (* ?x238 |v4:13|)))
(let ((?x552 (+ (+ (+ (+ (* ?x128 |v0:17|) (* ?x103 |v9:8|)) (* ?x38 |v0:17|)) ?x302) ?x551)))
(let ((?x539 (* ?x116 |v16:1|)))
(let ((?x163 8))
(let ((?x207 (* ?x163 |v10:7|)))
(let ((?x540 (+ (+ (+ (+ (* ?x112 |v17:0|) (* ?x94 |v7:10|)) (* ?x147 |v8:9|)) ?x207) ?x539)))
(let (($x556 (and (<= (+ (+ ?x540 (* ?x67 |v5:12|)) (* ?x163 |v15:2|)) ?x232) (<= (+ (+ ?x552 ?x355) |v11:6|) ?x10))))
(let ((?x527 (+ (+ (+ (+ (* ?x112 |v16:1|) ?x474) (* ?x116 |v4:13|)) (* ?x79 |v6:11|)) ?x526)))
(let ((?x516 (+ (+ (+ (+ (* ?x243 |v16:1|) |v16:1|) (* ?x94 |v7:10|)) (* ?x19 |v10:7|)) (* ?x28 |v1:16|))))
(let (($x533 (and (<= (+ (+ ?x516 (* ?x94 |v17:0|)) (* ?x243 |v3:14|)) ?x243) (<= (+ (+ ?x527 ?x528) ?x530) ?x10))))
(let ((?x504 (* ?x116 |v8:9|)))
(let ((?x502 (+ (+ (+ (* ?x28 |v15:2|) (* ?x181 |v15:2|)) (* ?x163 |v1:16|)) (* ?x243 |v12:5|))))
(let ((?x489 (+ (+ (+ (* ?x19 |v2:15|) (* ?x160 |v4:13|)) (* ?x54 |v10:7|)) (* ?x87 |v14:3|))))
(let (($x509 (and (<= (+ (+ (+ ?x489 (* ?x128 |v12:5|)) (* ?x107 |v14:3|)) ?x494) ?x28) (<= (+ (+ (+ ?x502 |v12:5|) ?x504) ?x506) ?x243))))
(let (($x581 (or (and $x509 $x533) (and $x556 (and (<= (+ (+ (+ ?x562 ?x324) ?x125) ?x80) ?x45) $x578)))))
(let (($x644 (or $x581 (and (<= (+ (+ ?x587 (* ?x58 |v16:1|)) ?x590) ?x67) (or $x618 $x641)))))
(let (($x999 (and (and $x644 (<= (+ (+ (+ ?x650 ?x348) |v4:13|) (* ?x147 |v11:6|)) ?x197)) (or $x806 $x997))))
(let ((?x475 (+ (+ (+ (+ (* ?x274 |v13:4|) (* ?x112 |v8:9|)) (* ?x243 |v7:10|)) ?x472) ?x474)))
(let ((?x456 (+ (+ (+ (+ (* ?x49 |v5:12|) ?x279) (* ?x190 |v15:2|)) (* ?x197 |v11:6|)) (* ?x217 |v10:7|))))
(let ((?x445 (+ (+ (+ (+ (* ?x28 |v15:2|) (* ?x67 |v12:5|)) (* ?x10 |v3:14|)) ?x442) (* ?x238 |v11:6|))))
(let (($x464 (or (<= (+ (+ ?x445 ?x336) (* ?x147 |v14:3|)) ?x67) (<= (+ (+ ?x456 (* ?x243 |v13:4|)) (* ?x460 |v0:17|)) ?x274))))
(let ((?x41 (- 13)))
(let ((?x433 (* ?x232 |v0:17|)))
(let ((?x430 (+ (+ (+ (* ?x112 |v2:15|) (* ?x24 |v6:11|)) (* ?x41 |v8:9|)) (* ?x67 |v10:7|))))
(let ((?x295 (* ?x143 |v14:3|)))
(let ((?x421 (+ (+ (+ (+ (+ ?x412 ?x413) |v9:8|) (* ?x197 |v5:12|)) (* ?x49 |v16:1|)) (* ?x243 |v8:9|))))
(let (($x438 (and (<= (+ ?x421 ?x295) ?x274) (<= (+ (+ (+ ?x430 (* ?x10 |v7:10|)) ?x433) (* ?x181 |v5:12|)) ?x41))))
(let ((?x406 (+ (+ (+ (+ ?x399 (* ?x163 |v8:9|)) ?x402) (* ?x232 |v14:3|)) (* ?x67 |v0:17|))))
(let (($x466 (and (<= (+ (+ ?x406 (* ?x79 |v10:7|)) (* ?x70 |v15:2|)) ?x238) (or $x438 $x464))))
(let ((?x390 (+ (+ (+ (* ?x87 |v4:13|) (* ?x197 |v9:8|)) (* (- 3) |v2:15|)) (* ?x45 |v3:14|))))
(let (($x397 (<= (+ (+ (+ ?x390 (* ?x14 |v1:16|)) (* ?x181 |v8:9|)) (* ?x41 |v5:12|)) ?x217)))
(let ((?x376 (+ (+ (+ (+ (* ?x138 |v16:1|) ?x370) (* ?x67 |v12:5|)) (* ?x10 |v3:14|)) (* ?x14 |v2:15|))))
(let ((?x363 (* ?x94 |v7:10|)))
(let ((?x362 (+ (+ (+ (+ (* ?x54 |v17:0|) ?x355) (* ?x38 |v7:10|)) (* ?x217 |v1:16|)) (* ?x160 |v8:9|))))
(let ((?x334 (* ?x45 |v15:2|)))
(let ((?x351 (+ (+ (+ (+ (+ ?x343 (* ?x19 |v2:15|)) (* ?x238 |v0:17|)) |v14:3|) ?x348) (* ?x14 |v11:6|))))
(let (($x368 (and (<= (+ ?x351 ?x334) ?x232) (<= (+ (+ ?x362 ?x363) (* ?x197 |v15:2|)) ?x116))))
(let ((?x333 (+ (+ (+ (* ?x274 |v16:1|) (* ?x63 |v16:1|)) (* ?x14 |v3:14|)) (* ?x160 |v3:14|))))
(let ((?x202 (* ?x181 |v9:8|)))
(let ((?x321 (* ?x79 |v6:11|)))
(let ((?x323 (+ (+ (+ (+ (+ (* ?x274 |v6:11|) (* ?x163 |v3:14|)) ?x317) ?x319) ?x321) ?x202)))
(let (($x341 (and (<= (+ ?x323 ?x324) ?x222) (<= (+ (+ (+ ?x333 ?x334) ?x336) (* ?x19 |v15:2|)) ?x217))))
(let ((?x307 (+ (+ (+ (+ (* ?x143 |v15:2|) |v17:0|) ?x302) (* ?x163 |v9:8|)) (* ?x120 |v2:15|))))
(let ((?x98 (* ?x54 |v3:14|)))
(let ((?x294 (+ (+ (+ (+ (* ?x91 |v17:0|) (* ?x197 |v8:9|)) (* ?x217 |v11:6|)) ?x292) ?x98)))
(let (($x313 (and (<= (+ (+ ?x294 ?x295) (* ?x45 |v8:9|)) ?x49) (<= (+ (+ ?x307 (* ?x67 |v6:11|)) (* ?x274 |v17:0|)) ?x181))))
(let (($x383 (or (or $x313 $x341) (and $x368 (<= (+ (+ ?x376 (* ?x41 |v17:0|)) (* ?x274 |v0:17|)) ?x58)))))
(let (($x482 (and (or $x383 $x397) (or $x466 (<= (+ (+ ?x475 (* ?x91 |v0:17|)) (* ?x14 |v12:5|)) ?x128)))))
(let ((?x278 (+ (+ (+ (+ (* ?x143 |v7:10|) (* ?x10 |v5:12|)) ?x271) (* ?x274 |v14:3|)) (* ?x232 |v13:4|))))
(let ((?x262 (+ (+ (+ (+ (* ?x14 |v0:17|) (* ?x181 |v16:1|)) ?x257) ?x259) (* ?x87 |v10:7|))))
(let (($x283 (and (<= (+ (+ ?x262 ?x263) (* ?x103 |v11:6|)) ?x163) (<= (+ (+ ?x278 ?x279) |v15:2|) ?x163))))
(let ((?x250 (* ?x232 |v14:3|)))
(let ((?x244 (* ?x243 |v2:15|)))
(let ((?x247 (+ (+ (+ (+ (* ?x67 |v14:3|) (* ?x120 |v17:0|)) (* ?x238 |v0:17|)) ?x244) (* ?x217 |v4:13|))))
(let ((?x33 (- 3)))
(let ((?x149 (* ?x33 |v13:4|)))
(let ((?x228 (+ (+ (+ (+ (* ?x217 |v11:6|) ?x219) (* ?x222 |v6:11|)) (* ?x147 |v13:4|)) (* ?x190 |v1:16|))))
(let (($x253 (and (<= (+ (+ ?x228 (* ?x24 |v12:5|)) ?x149) ?x232) (<= (+ (+ ?x247 (* ?x41 |v6:11|)) ?x250) ?x120))))
(let ((?x211 (+ (+ (+ (+ (+ ?x202 (* ?x103 |v0:17|)) ?x205) ?x207) |v11:6|) (* ?x28 |v7:10|))))
(let ((?x188 (+ (+ (+ (* ?x181 |v4:13|) (* ?x58 |v6:11|)) (* ?x45 |v13:4|)) (* ?x14 |v7:10|))))
(let ((?x176 (* ?x24 |v3:14|)))
(let ((?x117 (* ?x116 |v0:17|)))
(let ((?x173 (+ (+ (+ (+ (* ?x116 |v1:16|) (* ?x63 |v11:6|)) (* ?x49 |v5:12|)) ?x117) ?x172)))
(let (($x199 (or (<= (+ (+ ?x173 (* ?x67 |v11:6|)) ?x176) ?x143) (<= (+ (+ (+ ?x188 (* ?x190 |v11:6|)) (* ?x41 |v16:1|)) ?x195) ?x197))))
(let ((?x161 (* ?x160 |v7:10|)))
(let ((?x59 (* ?x58 |v4:13|)))
(let ((?x156 (+ (+ (+ (+ (* ?x147 |v6:11|) ?x149) (* ?x33 |v6:11|)) (* ?x120 |v14:3|)) (* ?x41 |v11:6|))))
(let ((?x135 (* ?x112 |v16:1|)))
(let ((?x140 (+ (+ (+ (+ (+ ?x125 (* ?x128 |v15:2|)) (* ?x38 |v3:14|)) ?x133) ?x135) (* ?x138 |v8:9|))))
(let (($x200 (and (and (<= (+ ?x140 ?x141) ?x143) (<= (+ (+ ?x156 ?x59) ?x161) ?x163)) $x199)))
(let ((?x68 (* ?x67 |v8:9|)))
(let ((?x113 (* ?x112 |v17:0|)))
(let ((?x118 (+ (+ (+ (+ (+ ?x98 (* ?x67 |v9:8|)) ?x104) (* ?x107 |v4:13|)) ?x113) ?x117)))
(let ((?x84 (+ (+ (+ (+ (* ?x45 |v16:1|) (* ?x33 |v6:11|)) ?x80) |v10:7|) (* ?x24 |v8:9|))))
(let ((?x60 (+ (+ (+ (+ (* ?x45 |v10:7|) (* ?x49 |v12:5|)) |v14:3|) (* ?x54 |v12:5|)) ?x59)))
(let (($x96 (or (<= (+ (+ ?x60 (* ?x63 |v8:9|)) ?x68) ?x70) (<= (+ (+ ?x84 (* ?x87 |v1:16|)) (* ?x91 |v14:3|)) ?x94))))
(let (($x286 (or (and (or $x96 (<= (+ ?x118 ?x68) ?x120)) $x200) (and (<= (+ ?x211 (* ?x120 |v13:4|)) ?x33) (and $x253 $x283)))))
(let ((?x39 (* ?x38 |v0:17|)))
(let ((?x30 (+ (+ (+ (+ (* ?x10 |v3:14|) ?x15) (* ?x19 |v14:3|)) (* ?x24 |v10:7|)) (* ?x28 |v13:4|))))
(or (and (and (<= (+ (+ ?x30 (* ?x33 |v4:13|)) ?x39) ?x41) $x286) $x482) $x999)))))))))))))))))))))))))))))))))))))))))))))))))))))))))))))))))))))))))))))))))))))))))))))))))))))))))))))))))))))))))))))))))))))))))))))))))))))))))))))))))))))))))))))))))))))))))))))))))))))))))))))))))))))))))))))))))))))))))))))
)
)
)
)
)
)
)
)
)
)
)
)
)
)
)
)
)
)
(check-sat)
(exit)

